<number of tasks>
50

<cycle time>
1000

<order strength>
0.596


<task times>
1 80
2 249
3 175
4 482
5 49
6 340
7 112
8 202
9 77
10 517
11 138
12 204
13 124
14 203
15 337
16 65
17 60
18 541
19 81
20 498
21 132
22 32
23 294
24 108
25 72
26 43
27 321
28 587
29 170
30 456
31 200
32 32
33 135
34 145
35 197
36 46
37 169
38 205
39 112
40 248
41 608
42 297
43 340
44 35
45 126
46 282
47 129
48 267
49 194
50 26

<precedence relations>
1,8
2,8
3,8
4,8
5,37
6,9
6,10
6,11
7,8
7,9
7,18
8,12
8,13
8,14
8,15
8,16
8,17
9,16
10,18
10,22
11,16
11,17
11,18
12,36
13,19
13,21
13,22
14,19
14,21
15,19
15,20
15,21
15,22
16,19
16,21
16,26
17,30
17,31
18,28
18,39
19,36
20,36
21,23
21,30
21,33
21,34
22,23
22,24
23,36
24,25
24,26
24,27
24,28
25,37
26,29
27,29
27,30
27,31
28,30
29,36
30,37
31,32
31,33
31,34
31,35
32,36
33,37
34,38
34,39
35,36
35,39
36,40
36,41
36,42
36,43
36,44
36,50
37,45
37,46
37,47
37,48
37,49
39,50
40,49
41,49
46,50

<end>
